(set-logic HORN)
(declare-fun state (Int Int Int (Array Int Int) (Array Int Int) Int Int (Array Int Int) (Array Int Int) Int Int (Array Int Int) (Array Int Int) Int Int Int Int Int Int Int Int Int Int Int Int Int Int Int Int Int Bool Bool Bool Int Int) Bool)
(assert (forall ((|F1| Int) (|B| Int) (|C| Int) (|G1| (Array Int Int)) (|E| (Array Int Int)) (|H1| Int) (|G| Int) (|H| (Array Int Int)) (|I| (Array Int Int)) (|I1| Int) (|K| Int) (|J1| (Array Int Int)) (|M| (Array Int Int)) (|K1| Int) (|O| Int) (|P| Int) (|Q| Int) (|R| Int) (|S| Int) (|T| Int) (|U| Int) (|V| Int) (|W| Int) (|X| Int) (|Y| Int) (|Z| Int) (|A1| Int) (|B1| Int) (|C1| Int) (|D1| Int) (|E1| Bool) (|.loc.3| Bool) (|.loc.4| Bool) (|G1_2| Int) (|F1_2| Int) (|.x.129| Int) (|.x.130| Int) (|.x.132| (Array Int Int)) (|.x.134| Int) (|.x.136| (Array Int Int)) (|.x.138| Int) (|.x.142| Int) (|.x.140| (Array Int Int)) (|.loc.5| Bool) (|.loc.6| Bool) (|.x.135| (Array Int Int)) (|.x.145| Int) (|.x.157| Int) (|.x.128| Int) (|.x.133| Int) (|.x.144| Int) (|.x.150| Int) (|.x.146| Int) (|.x.143| Int) (|.x.154| Int) (|.x.147| Int) (|.x.156| Int) (|.x.155| Int) (|.x.149| Int) (|E1_4| Bool) (|.x.131| (Array Int Int)) (|.x.139| (Array Int Int)) (|.x.141| Int) (|.x.137| Int) (|.x.148| Int) (|.x.151| Int) (|.x.152| Int) (|.x.153| Int) (|.xtv.1| Int) (|.xtv.2| Int)) (=> (and (and (not .loc.4) (not .loc.3)) (and (and (and (and (and (and (and (= H I) (not E1)) (= G1 E)) (= J1 M)) (= F1 B)) (= H1 G)) (= K1 O)) (= I1 K))) (state |F1| |B| |C| |G1| |E| |H1| |G| |H| |I| |I1| |K| |J1| |M| |K1| |O| |P| |Q| |R| |S| |T| |U| |V| |W| |X| |Y| |Z| |A1| |B1| |C1| |D1| |E1| |.loc.3| |.loc.4| |G1_2| |F1_2|))))
(assert (forall ((|F1| Int) (|B| Int) (|C| Int) (|G1| (Array Int Int)) (|E| (Array Int Int)) (|H1| Int) (|G| Int) (|H| (Array Int Int)) (|I| (Array Int Int)) (|I1| Int) (|K| Int) (|J1| (Array Int Int)) (|M| (Array Int Int)) (|K1| Int) (|O| Int) (|P| Int) (|Q| Int) (|R| Int) (|S| Int) (|T| Int) (|U| Int) (|V| Int) (|W| Int) (|X| Int) (|Y| Int) (|Z| Int) (|A1| Int) (|B1| Int) (|C1| Int) (|D1| Int) (|E1| Bool) (|.loc.3| Bool) (|.loc.4| Bool) (|G1_2| Int) (|F1_2| Int) (|.x.129| Int) (|.x.130| Int) (|.x.132| (Array Int Int)) (|.x.134| Int) (|.x.136| (Array Int Int)) (|.x.138| Int) (|.x.142| Int) (|.x.140| (Array Int Int)) (|.loc.5| Bool) (|.loc.6| Bool) (|.x.135| (Array Int Int)) (|.x.145| Int) (|.x.157| Int) (|.x.128| Int) (|.x.133| Int) (|.x.144| Int) (|.x.150| Int) (|.x.146| Int) (|.x.143| Int) (|.x.154| Int) (|.x.147| Int) (|.x.156| Int) (|.x.155| Int) (|.x.149| Int) (|E1_4| Bool) (|.x.131| (Array Int Int)) (|.x.139| (Array Int Int)) (|.x.141| Int) (|.x.137| Int) (|.x.148| Int) (|.x.151| Int) (|.x.152| Int) (|.x.153| Int) (|.xtv.1| Int) (|.xtv.2| Int)) (=> (and (state |F1| |B| |C| |G1| |E| |H1| |G| |H| |I| |I1| |K| |J1| |M| |K1| |O| |P| |Q| |R| |S| |T| |U| |V| |W| |X| |Y| |Z| |A1| |B1| |C1| |D1| |E1| |.loc.3| |.loc.4| |G1_2| |F1_2|) (let ((.def_46 (not .loc.3))) (let ((.def_92 (= G1_2 F1_2))) (let ((.def_108 (and (= G1_2 (select (select .x.135 .x.145) .x.157)) (= F1_2 (select (select .x.135 .x.133) (+ .x.128 4)))))) (let ((.def_153 (and (= .x.135 (store H .x.146 (store (select H .x.146) .x.143 (select (select H .x.144) .x.150)))) (and (= .x.146 .x.154) (and (= (+ .x.157 (* (- 1) .x.147)) (- 4)) (and (= .x.150 .x.156) (and (= .x.145 .x.154) (and (= .x.145 .x.155) (and (= .x.144 .x.155) (and (= .x.145 .x.133) (and (and (= (+ .x.157 (* (- 1) .x.156)) (- 4)) (= .x.143 .x.147)) (= .x.157 .x.128)))))))))))) (let ((.def_156 (= V .x.149))) (let ((.def_159 (select H .x.133))) (let ((.def_185 (= .x.133 0))) (let ((.def_194 (or E1 (and (= (select .def_159 (+ .x.128 4)) 1) (and (= (select .def_159 .x.128) 0) (and (and (and (and (and (and (and (= (store (store G1 0 0) .x.133 1) .x.131) (not (<= C .x.133))) (= (store J1 .x.133 8) .x.139)) (= .x.141 0)) (= .x.137 0)) (= .x.128 0)) (not .def_185)) (= (ite .def_185 0 (select G1 .x.133)) 0))))))) (let ((.def_227 (= E1 E1_4))) (let ((.def_262 (not .loc.6))) (and (and (not .loc.4) (and (= B .x.129) (and (= C .x.130) (and (= E .x.132) (and (= G .x.134) (and (= I .x.136) (and (= K .x.138) (and (= O .x.142) (= M .x.140))))))))) (or (or (and (and (not .loc.5) .loc.6) (or (and .def_46 (and (or E1 (not .def_92)) (and (or E1 .def_108) (and (or E1 .def_153) (and (and .def_156 E1_4) .def_194))))) (and (or E1 (= X .x.149)) (and (= F1 .x.128) (and (= G1 .x.131) (and (= H1 .x.133) (and (= H .x.135) (and (= I1 .x.137) (and (= J1 .x.139) (and (= K1 .x.141) (and (= P .x.143) (and (= Q .x.144) (and (= R .x.145) (and (= S .x.146) (and (= T .x.147) (and (= U .x.148) (and (= W .x.150) (and (= X .x.151) (and (= Y .x.152) (and (= Z .x.153) (and (= A1 .x.154) (and (= B1 .x.155) (and (= C1 .x.156) (and (= D1 .x.157) (and .loc.3 .def_227))))))))))))))))))))))))) (and (or .def_153 E1_4) (and (or .def_108 E1_4) (and (or E1_4 (and .def_92 (= .x.151 0))) (and (and .def_227 (and .loc.5 (and .def_46 (and .def_156 .def_194)))) .def_262))))) (and .def_262 (and .loc.5 (and .def_46 (and .def_194 (and .def_156 (and E1 E1_4))))))))))))))))))) (state |.x.128| |.x.129| |.x.130| |.x.131| |.x.132| |.x.133| |.x.134| |.x.135| |.x.136| |.x.137| |.x.138| |.x.139| |.x.140| |.x.141| |.x.142| |.x.143| |.x.144| |.x.145| |.x.146| |.x.147| |.x.148| |.x.149| |.x.150| |.x.151| |.x.152| |.x.153| |.x.154| |.x.155| |.x.156| |.x.157| |E1_4| |.loc.5| |.loc.6| |.xtv.1| |.xtv.2|))))
(assert (forall ((|F1| Int) (|B| Int) (|C| Int) (|G1| (Array Int Int)) (|E| (Array Int Int)) (|H1| Int) (|G| Int) (|H| (Array Int Int)) (|I| (Array Int Int)) (|I1| Int) (|K| Int) (|J1| (Array Int Int)) (|M| (Array Int Int)) (|K1| Int) (|O| Int) (|P| Int) (|Q| Int) (|R| Int) (|S| Int) (|T| Int) (|U| Int) (|V| Int) (|W| Int) (|X| Int) (|Y| Int) (|Z| Int) (|A1| Int) (|B1| Int) (|C1| Int) (|D1| Int) (|E1| Bool) (|.loc.3| Bool) (|.loc.4| Bool) (|G1_2| Int) (|F1_2| Int) (|.x.129| Int) (|.x.130| Int) (|.x.132| (Array Int Int)) (|.x.134| Int) (|.x.136| (Array Int Int)) (|.x.138| Int) (|.x.142| Int) (|.x.140| (Array Int Int)) (|.loc.5| Bool) (|.loc.6| Bool) (|.x.135| (Array Int Int)) (|.x.145| Int) (|.x.157| Int) (|.x.128| Int) (|.x.133| Int) (|.x.144| Int) (|.x.150| Int) (|.x.146| Int) (|.x.143| Int) (|.x.154| Int) (|.x.147| Int) (|.x.156| Int) (|.x.155| Int) (|.x.149| Int) (|E1_4| Bool) (|.x.131| (Array Int Int)) (|.x.139| (Array Int Int)) (|.x.141| Int) (|.x.137| Int) (|.x.148| Int) (|.x.151| Int) (|.x.152| Int) (|.x.153| Int) (|.xtv.1| Int) (|.xtv.2| Int)) (=> (state |F1| |B| |C| |G1| |E| |H1| |G| |H| |I| |I1| |K| |J1| |M| |K1| |O| |P| |Q| |R| |S| |T| |U| |V| |W| |X| |Y| |Z| |A1| |B1| |C1| |D1| |E1| |.loc.3| |.loc.4| |G1_2| |F1_2|) (not (and E1 (and .loc.4 (not .loc.3)))))))
(check-sat)
